# DATA
set J := 1 2 3 4 5 6;
set N := d1 d2 d3 d4 d5 d6;

param c :
   1  2  3  4  5 :=
A 11 20 30 40 50
B  9 17 24 34 45
C  8 15 21 26 31
;
param n:
              1   2   3   4   5   6:=
   d1        39  06  75  88  15  57
   d2        09  02  58  68  48  64
   d3        29  55  16  67  08  91
   d4        40  54  66  22  32  25
   d5        49  01  17  41  14  30
   d6        44  63  10  83  46  03;
